column=7;
row=7;
max=5;
left=[4, 0, 1, 3, 3, 2, 5];
right=[0, 5, 4, 2, 0, 4, 3];
top=[0, 1, 2, 3, 2, 1, 5];
bottom=[5, 4, 0, 0, 1, 3, 0];
Board=[|4,0,0,3,0,1,5|0,1,0,0,2,0,0|1,2,0,5,0,4,0|3,5,0,0,4,0,2|0,3,4,0,5,2,0|2,0,0,1,0,3,4|0,4,0,0,1,0,3|]